30 5
36 79 21 16 23 31 29 95 45 50 54 54 17 40 59 78 44 32 81 29 11 22 25 74 21 98 78 48 81 78 
45 82 19 82 57 73 90 3 30 93 86 20 63 96 96 62 95 87 47 81 97 16 34 90 16 34 21 19 48 5 
94 97 77 74 66 16 65 9 35 15 55 92 77 26 85 19 32 69 24 62 85 18 18 16 97 71 49 6 97 97 
17 28 81 6 30 94 49 16 75 71 35 74 33 84 1 53 83 99 63 85 80 56 70 40 27 47 43 36 83 76 
71 27 64 60 25 74 6 4 46 66 39 58 33 42 30 40 75 46 10 48 58 84 75 48 34 40 26 45 1 6 
